set VV := 0 1 2 3 4 5 6 7 8 9 10 11 12 13 14 15 16 17 18 19 20 21 22 23 24 25 26 27 28 29 ;
set VS := 0 1 2 3 4 5 6 7 8 9 10 11 12 13 14 15 16 17 18 19 20 21 22 23 24 25 26 27 28 29 30 31 32 33 34 35 36 37 38 39 40 41 42 43 44 45 46 47 48 49 50 51 52 53 54 55 56 57 58 59 60 61 62 63 ;
param cv := 
0 23
1 22
2 23
3 22
4 12
5 12
6 11
7 11
8 13
9 23
10 17
11 16
12 21
13 25
14 21
15 13
16 22
17 16
18 19
19 15
20 21
21 20
22 25
23 17
24 10
25 11
26 18
27 14
28 20
29 25
;
param cs := 
0 22
1 35
2 21
3 22
4 33
5 40
6 37
7 31
8 32
9 25
10 36
11 34
12 40
13 32
14 25
15 22
16 22
17 20
18 22
19 30
20 27
21 27
22 25
23 40
24 26
25 22
26 29
27 34
28 25
29 33
30 27
31 36
32 29
33 24
34 27
35 36
36 29
37 30
38 22
39 33
40 20
41 37
42 25
43 36
44 28
45 36
46 22
47 27
48 24
49 23
50 31
51 36
52 39
53 24
54 37
55 37
56 21
57 22
58 22
59 27
60 23
61 40
62 29
63 31
;
param bv:	 0 1 2 3 4 5 6 7 8 9 10 11 12 13 14 15 16 17 18 19 20 21 22 23 24 25 26 27 28 29 := 
		0 0 0 13 0 0 0 0 0 0 0 0 0 23 0 0 21 0 0 0 0 0 0 0 0 0 0 0 0 0 0 
		1 0 0 0 0 21 0 0 17 0 0 0 0 0 13 0 0 0 0 0 0 0 0 0 0 0 0 0 0 0 0 
		2 0 0 0 0 0 0 24 0 0 0 0 0 0 0 0 0 0 25 0 0 0 0 0 0 0 0 0 0 0 0 
		3 0 0 0 0 0 0 0 0 0 0 0 0 0 0 0 0 0 0 0 0 0 0 25 0 0 0 0 0 0 0 
		4 0 0 0 0 0 0 0 0 0 18 0 0 0 10 0 0 0 0 0 0 0 15 0 0 0 0 0 0 0 0 
		5 0 0 0 0 0 0 12 0 0 0 0 0 0 0 0 0 0 0 0 0 0 12 0 0 0 0 0 0 0 0 
		6 0 0 0 0 0 0 0 0 0 0 0 0 18 0 0 0 13 0 0 0 0 15 0 0 22 0 0 0 0 0 
		7 0 0 0 0 0 0 0 0 18 16 13 20 0 0 0 0 0 0 0 12 0 0 0 18 0 0 0 0 0 0 
		8 0 0 0 0 0 0 0 0 0 0 0 0 0 0 0 0 0 12 0 0 0 0 0 0 0 0 0 0 0 0 
		9 0 0 0 0 0 0 0 0 0 0 0 0 0 0 0 23 20 0 0 0 0 0 18 0 23 0 0 0 0 0 
		10 0 0 0 0 0 0 0 0 0 0 0 0 0 0 0 0 0 0 0 0 0 0 0 0 0 0 0 0 0 0 
		11 0 0 0 0 0 0 0 0 0 0 0 0 10 0 25 0 0 0 0 0 0 0 0 0 0 0 0 0 0 0 
		12 0 0 0 0 0 0 0 0 0 0 0 0 0 0 0 0 0 0 0 0 0 25 0 0 0 0 0 0 0 0 
		13 0 0 0 0 0 0 0 0 0 0 0 0 0 0 0 0 0 0 0 0 0 0 0 0 0 0 0 0 23 0 
		14 0 0 0 0 0 0 0 0 0 0 0 0 0 0 0 0 0 0 0 0 0 0 0 0 0 0 0 0 0 0 
		15 0 0 0 0 0 0 0 0 0 0 0 0 0 0 0 0 0 0 0 0 0 21 0 0 0 0 0 0 0 0 
		16 0 0 0 0 0 0 0 0 0 0 0 0 0 0 0 0 0 0 0 0 0 0 0 0 0 0 0 17 0 0 
		17 0 0 0 0 0 0 0 0 0 0 0 0 0 0 0 0 0 0 0 15 0 0 0 0 0 0 0 0 0 0 
		18 0 0 0 0 0 0 0 0 0 0 0 0 0 0 0 0 0 0 0 0 0 0 18 0 15 0 12 0 0 0 
		19 0 0 0 0 0 0 0 0 0 0 0 0 0 0 0 0 0 0 0 0 0 0 0 0 0 21 0 0 0 19 
		20 0 0 0 0 0 0 0 0 0 0 0 0 0 0 0 0 0 0 0 0 0 0 0 0 0 0 0 0 24 0 
		21 0 0 0 0 0 0 0 0 0 0 0 0 0 0 0 0 0 0 0 0 0 0 0 0 0 0 0 0 0 21 
		22 0 0 0 0 0 0 0 0 0 0 0 0 0 0 0 0 0 0 0 0 0 0 0 0 0 0 0 0 0 0 
		23 0 0 0 0 0 0 0 0 0 0 0 0 0 0 0 0 0 0 0 0 0 0 0 0 0 20 0 0 0 13 
		24 0 0 0 0 0 0 0 0 0 0 0 0 0 0 0 0 0 0 0 0 0 0 0 0 0 0 0 0 0 0 
		25 0 0 0 0 0 0 0 0 0 0 0 0 0 0 0 0 0 0 0 0 0 0 0 0 0 0 0 0 0 16 
		26 0 0 0 0 0 0 0 0 0 0 0 0 0 0 0 0 0 0 0 0 0 0 0 0 0 0 0 0 0 16 
		27 0 0 0 0 0 0 0 0 0 0 0 0 0 0 0 0 0 0 0 0 0 0 0 0 0 0 0 0 0 0 
		28 0 0 0 0 0 0 0 0 0 0 0 0 0 0 0 0 0 0 0 0 0 0 0 0 0 0 0 0 0 12 
		29 0 0 0 0 0 0 0 0 0 0 0 0 0 0 0 0 0 0 0 0 0 0 0 0 0 0 0 0 0 0 
;
param bs:	 0 1 2 3 4 5 6 7 8 9 10 11 12 13 14 15 16 17 18 19 20 21 22 23 24 25 26 27 28 29 30 31 32 33 34 35 36 37 38 39 40 41 42 43 44 45 46 47 48 49 50 51 52 53 54 55 56 57 58 59 60 61 62 63 := 
		0 0 0 0 0 0 0 0 0 0 30 0 0 0 0 39 0 0 0 22 0 0 0 0 0 0 22 0 0 0 0 0 0 0 0 30 0 0 0 0 0 0 0 0 0 0 0 0 0 0 27 0 0 0 0 0 0 0 26 0 0 0 0 0 0 
		1 0 0 0 0 0 0 0 0 0 0 0 0 0 37 0 0 0 0 0 0 0 0 0 0 0 0 0 0 0 0 0 0 0 0 0 0 0 0 0 0 0 0 0 0 0 0 23 0 0 0 0 28 0 22 0 0 0 0 0 0 0 0 0 0 
		2 0 0 0 33 0 0 0 0 0 0 0 0 0 0 0 22 0 0 0 40 0 0 0 0 0 0 0 40 0 0 0 0 0 0 37 0 0 34 0 0 0 29 0 0 0 0 0 0 0 0 0 0 37 0 0 0 0 0 0 0 0 0 0 0 
		3 0 0 33 0 0 32 32 0 0 0 0 0 0 0 0 0 0 0 0 0 0 0 0 27 0 0 0 0 0 0 0 0 0 0 0 0 0 0 0 0 0 0 0 0 0 0 0 0 0 0 0 0 0 0 0 0 0 0 0 0 20 0 0 0 
		4 0 0 0 0 0 0 0 0 0 33 0 0 23 0 0 0 0 0 0 0 0 0 0 0 0 0 28 0 0 0 0 0 0 0 0 0 0 20 0 28 0 0 0 0 0 23 0 0 0 0 29 0 0 20 0 38 0 0 0 0 0 0 0 0 
		5 0 0 0 32 0 0 0 0 0 0 0 0 0 0 0 0 0 0 0 0 0 0 0 0 0 0 0 0 0 0 40 0 0 0 0 29 0 0 0 0 0 0 0 0 0 0 0 0 20 0 0 24 0 0 0 0 0 0 0 0 38 0 0 0 
		6 0 0 0 32 0 0 0 0 0 0 0 0 33 0 0 0 0 0 38 0 0 0 0 32 0 0 0 0 0 0 0 0 0 0 0 0 0 36 0 0 0 0 0 0 0 0 0 0 0 0 36 0 0 0 0 0 0 0 0 0 22 0 0 0 
		7 0 0 0 0 0 0 0 0 0 0 0 0 0 0 0 0 0 0 0 0 0 0 0 0 0 0 20 0 0 0 0 0 0 0 0 0 25 34 0 0 0 0 0 0 0 0 0 0 0 0 0 0 30 26 0 0 0 0 39 0 37 0 21 0 
		8 0 0 0 0 0 0 0 0 0 0 23 0 0 0 0 0 0 21 0 0 0 0 0 0 0 0 39 0 0 0 0 0 0 0 0 0 0 38 0 0 20 0 0 24 0 0 0 0 0 0 40 0 0 0 0 0 0 0 0 0 0 0 0 0 
		9 30 0 0 0 33 0 0 0 0 0 0 0 0 0 0 0 0 0 0 0 0 0 0 0 0 0 0 0 0 0 0 31 0 0 0 0 0 0 0 0 0 0 0 0 0 0 0 0 0 0 0 0 0 0 0 0 0 0 0 0 0 0 0 0 
		10 0 0 0 0 0 0 0 0 23 0 0 0 0 0 0 0 0 29 0 0 0 0 0 0 21 35 0 0 0 0 0 0 0 0 0 0 0 0 0 0 0 0 0 0 0 0 0 0 0 0 0 0 0 0 23 34 0 0 0 0 0 0 0 35 
		11 0 0 0 0 0 0 0 0 0 0 0 0 0 0 25 0 0 0 0 21 0 0 0 0 0 0 34 32 0 0 0 0 0 0 0 0 0 0 0 0 0 0 0 0 0 22 0 0 0 0 0 23 0 0 0 21 0 0 0 0 39 0 0 0 
		12 0 0 0 0 23 0 33 0 0 0 0 0 0 0 0 0 0 0 0 0 0 0 0 38 0 0 0 39 0 0 0 0 0 0 0 0 0 0 0 0 0 0 0 0 0 21 0 0 0 0 28 0 39 0 0 0 0 0 0 0 22 0 0 0 
		13 0 37 0 0 0 0 0 0 0 0 0 0 0 0 0 0 0 0 0 32 0 0 0 0 0 0 0 0 40 0 0 0 0 0 0 0 0 33 0 0 0 0 32 0 0 0 0 0 0 0 0 0 40 0 0 0 0 0 0 0 0 0 38 0 
		14 39 0 0 0 0 0 0 0 0 0 0 25 0 0 0 0 0 0 0 0 31 0 0 0 0 0 23 0 0 0 0 0 0 0 0 0 0 0 0 22 0 0 34 0 0 0 31 0 0 0 0 0 0 0 0 21 21 0 0 23 0 0 0 0 
		15 0 0 22 0 0 0 0 0 0 0 0 0 0 0 0 0 0 0 0 0 0 0 0 0 0 0 0 0 0 0 0 0 0 0 0 0 0 0 0 0 0 0 0 0 0 0 0 0 25 0 0 0 0 0 0 0 28 35 0 0 0 0 0 0 
		16 0 0 0 0 0 0 0 0 0 0 0 0 0 0 0 0 0 0 0 0 30 30 0 0 0 0 0 0 0 0 0 0 0 0 0 0 0 0 0 0 0 0 0 0 0 0 0 0 0 0 0 0 0 0 0 0 0 0 0 0 0 0 0 0 
		17 0 0 0 0 0 0 0 0 21 0 29 0 0 0 0 0 0 0 0 0 0 0 0 0 0 0 0 0 0 0 0 0 0 0 0 0 33 0 0 0 0 0 0 37 0 21 0 0 0 0 0 0 0 40 0 40 0 0 0 0 0 0 0 0 
		18 22 0 0 0 0 0 38 0 0 0 0 0 0 0 0 0 0 0 0 0 0 0 0 0 0 0 0 33 0 0 0 37 0 0 0 0 0 0 0 0 0 0 0 0 35 0 0 0 22 0 0 0 0 0 0 0 0 0 0 0 0 25 0 0 
		19 0 0 40 0 0 0 0 0 0 0 0 21 0 32 0 0 0 0 0 0 0 0 0 0 0 0 0 0 0 0 0 0 0 0 0 0 32 0 0 0 0 0 0 0 0 0 0 0 0 0 0 0 0 0 0 0 0 0 0 0 0 0 0 0 
		20 0 0 0 0 0 0 0 0 0 0 0 0 0 0 31 0 30 0 0 0 0 27 0 0 0 0 0 27 27 22 0 0 0 0 0 0 0 28 0 0 0 0 0 0 0 0 0 0 0 0 0 0 0 0 0 0 0 0 0 0 39 0 0 0 
		21 0 0 0 0 0 0 0 0 0 0 0 0 0 0 0 0 30 0 0 0 27 0 0 0 0 0 0 0 27 0 0 0 0 0 0 0 0 0 0 0 0 28 0 0 0 0 0 0 0 0 31 0 0 0 0 0 0 31 0 0 0 0 0 0 
		22 0 0 0 0 0 0 0 0 0 0 0 0 0 0 0 0 0 0 0 0 0 0 0 0 0 0 0 0 0 37 0 0 0 0 0 0 22 0 0 0 0 32 0 0 0 28 0 0 0 0 0 0 0 0 0 0 0 0 0 0 0 0 0 0 
		23 0 0 0 27 0 0 32 0 0 0 0 0 38 0 0 0 0 0 0 0 0 0 0 0 0 0 0 0 0 0 35 0 0 0 0 0 0 0 0 0 0 0 0 0 0 31 0 0 0 0 0 0 0 0 0 0 0 0 0 0 0 0 0 0 
		24 0 0 0 0 0 0 0 0 0 0 21 0 0 0 0 0 0 0 0 0 0 0 0 0 0 0 0 0 0 0 0 0 39 0 0 0 0 0 0 0 0 0 0 0 0 0 0 0 0 0 0 0 0 0 30 0 0 0 0 0 0 0 0 29 
		25 22 0 0 0 0 0 0 0 0 0 35 0 0 0 0 0 0 0 0 0 0 0 0 0 0 0 0 0 0 0 0 0 0 0 0 0 0 0 0 21 0 0 0 0 0 0 39 0 0 0 0 0 0 0 0 0 37 0 0 0 0 0 0 0 
		26 0 0 0 0 28 0 0 20 39 0 0 34 0 0 23 0 0 0 0 0 0 0 0 0 0 0 0 0 0 0 0 0 0 29 0 0 0 36 0 0 0 0 0 0 0 0 0 0 0 0 0 0 23 0 0 0 0 0 0 0 0 0 0 0 
		27 0 0 40 0 0 0 0 0 0 0 0 32 39 0 0 0 0 0 33 0 27 0 0 0 0 0 0 0 0 0 0 0 0 0 0 0 0 0 37 0 0 0 0 0 39 0 37 0 0 0 31 0 0 0 0 0 0 0 0 0 0 0 0 0 
		28 0 0 0 0 0 0 0 0 0 0 0 0 0 40 0 0 0 0 0 0 27 27 0 0 0 0 0 0 0 20 0 0 0 0 0 0 0 0 20 0 0 23 0 0 0 0 0 25 0 27 0 0 0 0 0 0 0 0 0 25 0 0 0 0 
		29 0 0 0 0 0 0 0 0 0 0 0 0 0 0 0 0 0 0 0 0 22 0 37 0 0 0 0 0 20 0 0 0 0 0 0 0 0 0 0 40 0 36 0 0 0 0 24 0 25 0 0 0 0 0 0 33 0 0 0 0 0 0 0 0 
		30 0 0 0 0 0 40 0 0 0 0 0 0 0 0 0 0 0 0 0 0 0 0 0 35 0 0 0 0 0 0 0 0 0 0 0 27 0 0 0 0 0 0 0 0 33 0 0 0 0 0 0 0 0 0 0 0 0 22 0 0 0 0 0 20 
		31 0 0 0 0 0 0 0 0 0 31 0 0 0 0 0 0 0 0 37 0 0 0 0 0 0 0 0 0 0 0 0 0 0 22 0 0 0 0 0 0 0 0 0 0 0 0 0 0 0 0 0 0 0 32 0 29 0 0 0 0 0 0 0 0 
		32 0 0 0 0 0 0 0 0 0 0 0 0 0 0 0 0 0 0 0 0 0 0 0 0 39 0 0 0 0 0 0 0 0 0 0 0 0 0 0 0 0 0 0 0 0 0 25 0 0 0 0 0 38 0 0 0 0 0 0 0 0 0 0 0 
		33 0 0 0 0 0 0 0 0 0 0 0 0 0 0 0 0 0 0 0 0 0 0 0 0 0 0 29 0 0 0 0 22 0 0 0 0 0 0 0 0 20 0 0 0 0 0 0 0 0 0 0 0 0 0 0 0 0 0 31 0 0 0 0 0 
		34 30 0 37 0 0 0 0 0 0 0 0 0 0 0 0 0 0 0 0 0 0 0 0 0 0 0 0 0 0 0 0 0 0 0 0 0 0 0 0 28 0 0 0 0 0 31 0 0 0 29 0 0 0 0 0 0 30 0 0 0 0 31 0 0 
		35 0 0 0 0 0 29 0 0 0 0 0 0 0 0 0 0 0 0 0 0 0 0 0 0 0 0 0 0 0 0 27 0 0 0 0 0 0 0 0 0 0 0 0 0 0 0 0 0 0 0 0 0 0 0 0 0 0 0 0 25 20 0 0 0 
		36 0 0 0 0 0 0 0 25 0 0 0 0 0 0 0 0 0 33 0 32 0 0 22 0 0 0 0 0 0 0 0 0 0 0 0 0 0 0 0 32 0 40 0 0 0 0 0 0 0 0 0 22 0 0 0 0 0 0 0 0 0 0 27 0 
		37 0 0 34 0 20 0 36 34 38 0 0 0 0 33 0 0 0 0 0 0 28 0 0 0 0 0 36 0 0 0 0 0 0 0 0 0 0 0 0 0 0 0 20 0 0 0 0 0 0 0 0 0 33 31 0 22 0 0 0 24 0 0 0 0 
		38 0 0 0 0 0 0 0 0 0 0 0 0 0 0 0 0 0 0 0 0 0 0 0 0 0 0 0 37 20 0 0 0 0 0 0 0 0 0 0 0 0 0 0 25 0 0 0 0 0 0 0 0 0 35 0 0 28 0 0 0 0 0 0 0 
		39 0 0 0 0 28 0 0 0 0 0 0 0 0 0 22 0 0 0 0 0 0 0 0 0 0 21 0 0 0 40 0 0 0 0 28 0 32 0 0 0 0 0 0 0 0 0 0 0 0 0 0 0 0 0 0 0 0 0 0 0 0 0 0 37 
		40 0 0 0 0 0 0 0 0 20 0 0 0 0 0 0 0 0 0 0 0 0 0 0 0 0 0 0 0 0 0 0 0 0 20 0 0 0 0 0 0 0 0 0 0 0 0 0 0 0 0 0 0 0 0 25 0 0 0 0 0 0 0 0 0 
		41 0 0 29 0 0 0 0 0 0 0 0 0 0 0 0 0 0 0 0 0 0 28 32 0 0 0 0 0 23 36 0 0 0 0 0 0 40 0 0 0 0 0 0 0 0 0 0 0 0 0 0 0 0 0 0 0 0 0 0 21 0 0 33 0 
		42 0 0 0 0 0 0 0 0 0 0 0 0 0 32 34 0 0 0 0 0 0 0 0 0 0 0 0 0 0 0 0 0 0 0 0 0 0 20 0 0 0 0 0 0 0 0 0 0 0 0 0 0 0 0 0 0 0 0 0 0 0 0 0 0 
		43 0 0 0 0 0 0 0 0 24 0 0 0 0 0 0 0 0 37 0 0 0 0 0 0 0 0 0 0 0 0 0 0 0 0 0 0 0 0 25 0 0 0 0 0 0 0 0 0 0 0 0 0 0 0 38 23 33 0 36 0 0 0 33 0 
		44 0 0 0 0 0 0 0 0 0 0 0 0 0 0 0 0 0 0 35 0 0 0 0 0 0 0 0 39 0 0 33 0 0 0 0 0 0 0 0 0 0 0 0 0 0 0 33 0 36 38 0 0 0 27 0 0 0 0 0 0 0 0 0 0 
		45 0 0 0 0 23 0 0 0 0 0 0 22 21 0 0 0 0 21 0 0 0 0 28 31 0 0 0 0 0 0 0 0 0 0 31 0 0 0 0 0 0 0 0 0 0 0 0 0 0 0 0 0 0 0 0 0 33 31 0 0 0 0 0 0 
		46 0 23 0 0 0 0 0 0 0 0 0 0 0 0 31 0 0 0 0 0 0 0 0 0 0 39 0 37 0 24 0 0 25 0 0 0 0 0 0 0 0 0 0 0 33 0 0 0 0 0 33 0 0 0 0 0 21 32 0 0 37 0 0 0 
		47 0 0 0 0 0 0 0 0 0 0 0 0 0 0 0 0 0 0 0 0 0 0 0 0 0 0 0 0 25 0 0 0 0 0 0 0 0 0 0 0 0 0 0 0 0 0 0 0 30 0 0 0 0 0 25 0 0 0 28 0 0 0 29 0 
		48 0 0 0 0 0 20 0 0 0 0 0 0 0 0 0 25 0 0 22 0 0 0 0 0 0 0 0 0 0 25 0 0 0 0 0 0 0 0 0 0 0 0 0 0 36 0 0 30 0 0 0 0 0 0 0 0 0 0 0 0 0 0 0 0 
		49 27 0 0 0 0 0 0 0 0 0 0 0 0 0 0 0 0 0 0 0 0 0 0 0 0 0 0 0 27 0 0 0 0 0 29 0 0 0 0 0 0 0 0 0 38 0 0 0 0 0 0 0 0 0 0 0 37 0 0 0 0 0 0 0 
		50 0 0 0 0 29 0 36 0 40 0 0 0 28 0 0 0 0 0 0 0 0 31 0 0 0 0 0 31 0 0 0 0 0 0 0 0 0 0 0 0 0 0 0 0 0 0 33 0 0 0 0 0 0 25 24 0 0 0 0 0 0 0 0 21 
		51 0 28 0 0 0 24 0 0 0 0 0 23 0 0 0 0 0 0 0 0 0 0 0 0 0 0 0 0 0 0 0 0 0 0 0 0 22 0 0 0 0 0 0 0 0 0 0 0 0 0 0 0 0 0 0 0 0 0 25 0 0 0 0 0 
		52 0 0 37 0 0 0 0 30 0 0 0 0 39 40 0 0 0 0 0 0 0 0 0 0 0 0 23 0 0 0 0 0 38 0 0 0 0 33 0 0 0 0 0 0 0 0 0 0 0 0 0 0 0 0 23 0 0 39 0 0 0 0 0 0 
		53 0 22 0 0 20 0 0 26 0 0 0 0 0 0 0 0 0 40 0 0 0 0 0 0 0 0 0 0 0 0 0 32 0 0 0 0 0 31 35 0 0 0 0 0 27 0 0 0 0 0 25 0 0 0 24 0 0 0 0 0 0 0 28 0 
		54 0 0 0 0 0 0 0 0 0 0 23 0 0 0 0 0 0 0 0 0 0 0 0 0 30 0 0 0 0 0 0 0 0 0 0 0 0 0 0 0 25 0 0 38 0 0 0 25 0 0 24 0 23 24 0 0 24 0 0 0 0 0 0 23 
		55 0 0 0 0 38 0 0 0 0 0 34 21 0 0 21 0 0 40 0 0 0 0 0 0 0 0 0 0 0 33 0 29 0 0 0 0 0 22 0 0 0 0 0 23 0 0 0 0 0 0 0 0 0 0 0 0 0 0 0 0 0 0 0 0 
		56 0 0 0 0 0 0 0 0 0 0 0 0 0 0 21 28 0 0 0 0 0 0 0 0 0 37 0 0 0 0 0 0 0 0 30 0 0 0 28 0 0 0 0 33 0 33 21 0 0 37 0 0 0 0 24 0 0 0 0 40 0 0 0 26 
		57 26 0 0 0 0 0 0 0 0 0 0 0 0 0 0 35 0 0 0 0 0 31 0 0 0 0 0 0 0 0 22 0 0 0 0 0 0 0 0 0 0 0 0 0 0 31 32 0 0 0 0 0 39 0 0 0 0 0 0 35 26 0 0 0 
		58 0 0 0 0 0 0 0 39 0 0 0 0 0 0 0 0 0 0 0 0 0 0 0 0 0 0 0 0 0 0 0 0 0 31 0 0 0 0 0 0 0 0 0 36 0 0 0 28 0 0 0 25 0 0 0 0 0 0 0 0 0 0 26 0 
		59 0 0 0 0 0 0 0 0 0 0 0 0 0 0 23 0 0 0 0 0 0 0 0 0 0 0 0 0 25 0 0 0 0 0 0 25 0 24 0 0 0 21 0 0 0 0 0 0 0 0 0 0 0 0 0 0 40 35 0 0 0 0 0 0 
		60 0 0 0 20 0 38 22 37 0 0 0 39 22 0 0 0 0 0 0 0 39 0 0 0 0 0 0 0 0 0 0 0 0 0 0 20 0 0 0 0 0 0 0 0 0 0 37 0 0 0 0 0 0 0 0 0 0 26 0 0 0 0 0 0 
		61 0 0 0 0 0 0 0 0 0 0 0 0 0 0 0 0 0 0 25 0 0 0 0 0 0 0 0 0 0 0 0 0 0 0 31 0 0 0 0 0 0 0 0 0 0 0 0 0 0 0 0 0 0 0 0 0 0 0 0 0 0 0 0 0 
		62 0 0 0 0 0 0 0 21 0 0 0 0 0 38 0 0 0 0 0 0 0 0 0 0 0 0 0 0 0 0 0 0 0 0 0 0 27 0 0 0 0 33 0 33 0 0 0 29 0 0 0 0 0 28 0 0 0 0 26 0 0 0 0 0 
		63 0 0 0 0 0 0 0 0 0 0 35 0 0 0 0 0 0 0 0 0 0 0 0 0 29 0 0 0 0 0 20 0 0 0 0 0 0 0 0 37 0 0 0 0 0 0 0 0 0 0 21 0 0 0 23 0 26 0 0 0 0 0 0 0 
;
